\ENCODING=ISO-8859-1
\Problem name: IloCplex

Maximize
 obj: 710 vnp1 + 959 vnp2 + 944 vnp3 + 934 vnp4 + 682 vnp5 + 900 vnp6
      + 871 vnp7 + 664 vnp8 + [ - 186 vn3_vnp1_sn5 * vn1_vnp1_sn20
      - 136 vn3_vnp1_sn5 * vn1_vnp1_sn17 - 174 vn3_vnp1_sn5 * vn2_vnp1_sn10
      - 242 vn3_vnp1_sn5 * vn2_vnp1_sn1 - 76 vn3_vnp1_sn5 * vn4_vnp1_sn18
      - 128 vn1_vnp1_sn20 * vn3_vnp1_sn12 - 166 vn1_vnp1_sn17 * vn3_vnp1_sn12
      - 62 vn3_vnp1_sn12 * vn2_vnp1_sn10 - 550 vn3_vnp1_sn12 * vn2_vnp1_sn1
      - 118 vn3_vnp1_sn12 * vn4_vnp1_sn18 - 180 vn2_vnp1_sn10 * vn4_vnp1_sn18
      - 144 vn2_vnp1_sn1 * vn4_vnp1_sn18 - 80 vn3_vnp2_sn6 * vn1_vnp2_sn8
      - 64 vn3_vnp2_sn6 * vn1_vnp2_sn11 - 66 vn3_vnp2_sn6 * vn1_vnp2_sn3
      - 170 vn3_vnp2_sn6 * vn2_vnp2_sn18 - 126 vn3_vnp2_sn6 * vn2_vnp2_sn10
      - 190 vn3_vnp2_sn6 * vn2_vnp2_sn4 - 90 vn3_vnp2_sn6 * vn4_vnp2_sn13
      - 520 vn3_vnp2_sn6 * vn4_vnp2_sn19 - 390 vn3_vnp2_sn6 * vn4_vnp2_sn16
      - 92 vn1_vnp2_sn8 * vn3_vnp2_sn2 - 70 vn1_vnp2_sn8 * vn2_vnp2_sn18
      - 350 vn1_vnp2_sn8 * vn2_vnp2_sn10 - 110 vn1_vnp2_sn8 * vn2_vnp2_sn4
      - 110 vn1_vnp2_sn11 * vn3_vnp2_sn2 - 400 vn1_vnp2_sn11 * vn2_vnp2_sn18
      - 80 vn1_vnp2_sn11 * vn2_vnp2_sn10 - 490 vn1_vnp2_sn11 * vn2_vnp2_sn4
      - 40 vn1_vnp2_sn3 * vn3_vnp2_sn2 - 410 vn1_vnp2_sn3 * vn2_vnp2_sn18
      - 330 vn1_vnp2_sn3 * vn2_vnp2_sn10 - 190 vn1_vnp2_sn3 * vn2_vnp2_sn4
      - 210 vn3_vnp2_sn2 * vn2_vnp2_sn18 - 194 vn3_vnp2_sn2 * vn2_vnp2_sn10
      - 138 vn3_vnp2_sn2 * vn2_vnp2_sn4 - 500 vn3_vnp2_sn2 * vn4_vnp2_sn13
      - 350 vn3_vnp2_sn2 * vn4_vnp2_sn19 - 450 vn3_vnp2_sn2 * vn4_vnp2_sn16
      - 338 vn2_vnp2_sn18 * vn4_vnp2_sn13 - 122 vn2_vnp2_sn18 * vn4_vnp2_sn19
      - 154 vn2_vnp2_sn18 * vn4_vnp2_sn16 - 50 vn2_vnp2_sn10 * vn4_vnp2_sn13
      - 354 vn2_vnp2_sn10 * vn4_vnp2_sn19 - 162 vn2_vnp2_sn10 * vn4_vnp2_sn16
      - 434 vn2_vnp2_sn4 * vn4_vnp2_sn13 - 162 vn2_vnp2_sn4 * vn4_vnp2_sn19
      - 186 vn2_vnp2_sn4 * vn4_vnp2_sn16 - 210 vn3_vnp3_sn12 * vn1_vnp3_sn19
      - 312 vn3_vnp3_sn12 * vn1_vnp3_sn7 - 138 vn3_vnp3_sn12 * vn1_vnp3_sn20
      - 214 vn3_vnp3_sn12 * vn4_vnp3_sn1 - 126 vn1_vnp3_sn19 * vn2_vnp3_sn16
      - 120 vn1_vnp3_sn7 * vn2_vnp3_sn16 - 96 vn1_vnp3_sn20 * vn2_vnp3_sn16
      - 94 vn2_vnp3_sn16 * vn4_vnp3_sn1 - 94 vn3_vnp4_sn19 * vn1_vnp4_sn13
      - 104 vn3_vnp4_sn19 * vn1_vnp4_sn14 - 102 vn3_vnp4_sn19 * vn1_vnp4_sn10
      - 172 vn3_vnp4_sn19 * vn4_vnp4_sn5 - 120 vn3_vnp4_sn19 * vn4_vnp4_sn15
      - 24 vn3_vnp4_sn19 * vn4_vnp4_sn7 - 216 vn1_vnp4_sn13 * vn2_vnp4_sn20
      - 274 vn1_vnp4_sn13 * vn2_vnp4_sn17 - 362 vn1_vnp4_sn13 * vn2_vnp4_sn1
      - 214 vn1_vnp4_sn13 * vn4_vnp4_sn5 - 104 vn1_vnp4_sn13 * vn4_vnp4_sn15
      - 454 vn1_vnp4_sn13 * vn4_vnp4_sn7 - 256 vn1_vnp4_sn14 * vn2_vnp4_sn20
      - 314 vn1_vnp4_sn14 * vn2_vnp4_sn17 - 290 vn1_vnp4_sn14 * vn2_vnp4_sn1
      - 234 vn1_vnp4_sn14 * vn4_vnp4_sn5 - 154 vn1_vnp4_sn14 * vn4_vnp4_sn15
      - 474 vn1_vnp4_sn14 * vn4_vnp4_sn7 - 218 vn1_vnp4_sn10 * vn2_vnp4_sn20
      - 444 vn1_vnp4_sn10 * vn2_vnp4_sn17 - 316 vn1_vnp4_sn10 * vn2_vnp4_sn1
      - 156 vn1_vnp4_sn10 * vn4_vnp4_sn5 - 106 vn1_vnp4_sn10 * vn4_vnp4_sn15
      - 396 vn1_vnp4_sn10 * vn4_vnp4_sn7 - 336 vn2_vnp4_sn20 * vn4_vnp4_sn5
      - 102 vn2_vnp4_sn20 * vn4_vnp4_sn15 - 114 vn2_vnp4_sn20 * vn4_vnp4_sn7
      - 180 vn2_vnp4_sn17 * vn4_vnp4_sn5 - 150 vn2_vnp4_sn17 * vn4_vnp4_sn15
      - 90 vn2_vnp4_sn17 * vn4_vnp4_sn7 - 144 vn2_vnp4_sn1 * vn4_vnp4_sn5
      - 270 vn2_vnp4_sn1 * vn4_vnp4_sn15 - 12 vn2_vnp4_sn1 * vn4_vnp4_sn7
      - 32 vn3_vnp5_sn13 * vn1_vnp5_sn12 - 296 vn3_vnp5_sn13 * vn1_vnp5_sn9
      - 446 vn3_vnp5_sn13 * vn1_vnp5_sn1 - 38 vn3_vnp5_sn13 * vn2_vnp5_sn11
      - 136 vn3_vnp5_sn13 * vn4_vnp5_sn5 - 46 vn3_vnp5_sn13 * vn4_vnp5_sn10
      - 70 vn3_vnp5_sn13 * vn4_vnp5_sn6 - 46 vn2_vnp5_sn11 * vn4_vnp5_sn5
      - 28 vn2_vnp5_sn11 * vn4_vnp5_sn10 - 64 vn2_vnp5_sn11 * vn4_vnp5_sn6
      - 26 vn4_vnp6_sn6 * vn1_vnp6_sn13 - 30 vn4_vnp6_sn6 * vn1_vnp6_sn5
      - 354 vn4_vnp6_sn6 * vn2_vnp6_sn4 - 286 vn4_vnp6_sn6 * vn2_vnp6_sn1
      - 166 vn4_vnp6_sn6 * vn2_vnp6_sn9 - 240 vn4_vnp6_sn6 * vn3_vnp6_sn14
      - 346 vn4_vnp6_sn6 * vn3_vnp6_sn16 - 232 vn4_vnp6_sn6 * vn3_vnp6_sn3
      - 36 vn1_vnp6_sn13 * vn3_vnp6_sn14 - 122 vn1_vnp6_sn13 * vn3_vnp6_sn16
      - 160 vn1_vnp6_sn13 * vn3_vnp6_sn3 - 106 vn1_vnp6_sn5 * vn3_vnp6_sn14
      - 140 vn1_vnp6_sn5 * vn3_vnp6_sn16 - 74 vn1_vnp6_sn5 * vn3_vnp6_sn3
      - 178 vn2_vnp7_sn4 * vn1_vnp7_sn12 - 132 vn2_vnp7_sn4 * vn1_vnp7_sn16
      - 34 vn2_vnp7_sn4 * vn3_vnp7_sn1 - 350 vn2_vnp7_sn4 * vn3_vnp7_sn20
      - 320 vn2_vnp7_sn4 * vn3_vnp7_sn14 - 64 vn2_vnp7_sn4 * vn4_vnp7_sn5
      - 80 vn1_vnp7_sn12 * vn2_vnp7_sn6 - 342 vn1_vnp7_sn12 * vn3_vnp7_sn1
      - 174 vn1_vnp7_sn12 * vn3_vnp7_sn20 - 54 vn1_vnp7_sn12 * vn3_vnp7_sn14
      - 198 vn1_vnp7_sn16 * vn2_vnp7_sn6 - 168 vn1_vnp7_sn16 * vn3_vnp7_sn1
      - 138 vn1_vnp7_sn16 * vn3_vnp7_sn20 - 144 vn1_vnp7_sn16 * vn3_vnp7_sn14
      - 368 vn2_vnp7_sn6 * vn3_vnp7_sn1 - 364 vn2_vnp7_sn6 * vn3_vnp7_sn20
      - 304 vn2_vnp7_sn6 * vn3_vnp7_sn14 - 38 vn2_vnp7_sn6 * vn4_vnp7_sn5
      - 54 vn3_vnp7_sn1 * vn4_vnp7_sn5 - 122 vn3_vnp7_sn20 * vn4_vnp7_sn5
      - 46 vn3_vnp7_sn14 * vn4_vnp7_sn5 - 114 vn3_vnp8_sn17 * vn1_vnp8_sn16
      - 156 vn3_vnp8_sn17 * vn1_vnp8_sn5 - 30 vn3_vnp8_sn17 * vn1_vnp8_sn8
      - 58 vn3_vnp8_sn17 * vn2_vnp8_sn3 - 34 vn3_vnp8_sn17 * vn2_vnp8_sn9
      - 102 vn3_vnp8_sn17 * vn2_vnp8_sn10 - 126 vn1_vnp8_sn16 * vn3_vnp8_sn20
      - 340 vn1_vnp8_sn16 * vn2_vnp8_sn3 - 220 vn1_vnp8_sn16 * vn2_vnp8_sn9
      - 210 vn1_vnp8_sn16 * vn2_vnp8_sn10 - 330 vn1_vnp8_sn5 * vn3_vnp8_sn20
      - 156 vn1_vnp8_sn5 * vn2_vnp8_sn3 - 86 vn1_vnp8_sn5 * vn2_vnp8_sn9
      - 156 vn1_vnp8_sn5 * vn2_vnp8_sn10 - 42 vn1_vnp8_sn8 * vn3_vnp8_sn20
      - 272 vn1_vnp8_sn8 * vn2_vnp8_sn3 - 152 vn1_vnp8_sn8 * vn2_vnp8_sn9
      - 332 vn1_vnp8_sn8 * vn2_vnp8_sn10 - 78 vn3_vnp8_sn20 * vn2_vnp8_sn3
      - 92 vn3_vnp8_sn20 * vn2_vnp8_sn9 - 50 vn3_vnp8_sn20 * vn2_vnp8_sn10
      ] / 2
Subject To
 _Embedding_clash_const_of_vnode1_vnp_1#0: - vnp1 + vn1_vnp1_sn20
                                 + vn1_vnp1_sn17 <= 0
 _Embedding_clash_const_of_vnode2_vnp_1#1: - vnp1 + vn2_vnp1_sn10
                                 + vn2_vnp1_sn1 <= 0
 _Embedding_clash_const_of_vnode3_vnp_1#2: - vnp1 + vn3_vnp1_sn5
                                 + vn3_vnp1_sn12 <= 0
 _Embedding_clash_const_of_vnode4_vnp_1#3: - vnp1 + vn4_vnp1_sn18 <= 0
 _Embedding_clash_const_of_vnode1_vnp_2#4: - vnp2 + vn1_vnp2_sn8
                                 + vn1_vnp2_sn11 + vn1_vnp2_sn3 <= 0
 _Embedding_clash_const_of_vnode2_vnp_2#5: - vnp2 + vn2_vnp2_sn18
                                 + vn2_vnp2_sn10 + vn2_vnp2_sn4 <= 0
 _Embedding_clash_const_of_vnode3_vnp_2#6: - vnp2 + vn3_vnp2_sn6 + vn3_vnp2_sn2
                                 <= 0
 _Embedding_clash_const_of_vnode4_vnp_2#7: - vnp2 + vn4_vnp2_sn13
                                 + vn4_vnp2_sn19 + vn4_vnp2_sn16 <= 0
 _Embedding_clash_const_of_vnode1_vnp_3#8: - vnp3 + vn1_vnp3_sn19
                                 + vn1_vnp3_sn7 + vn1_vnp3_sn20 <= 0
 _Embedding_clash_const_of_vnode2_vnp_3#9: - vnp3 + vn2_vnp3_sn16 <= 0
 _Embedding_clash_const_of_vnode3_vnp_3#10: - vnp3 + vn3_vnp3_sn12 <= 0
 _Embedding_clash_const_of_vnode4_vnp_3#11: - vnp3 + vn4_vnp3_sn1 <= 0
 _Embedding_clash_const_of_vnode1_vnp_4#12: - vnp4 + vn1_vnp4_sn13
                                 + vn1_vnp4_sn14 + vn1_vnp4_sn10 <= 0
 _Embedding_clash_const_of_vnode2_vnp_4#13: - vnp4 + vn2_vnp4_sn20
                                 + vn2_vnp4_sn17 + vn2_vnp4_sn1 <= 0
 _Embedding_clash_const_of_vnode3_vnp_4#14: - vnp4 + vn3_vnp4_sn19 <= 0
 _Embedding_clash_const_of_vnode4_vnp_4#15: - vnp4 + vn4_vnp4_sn5
                                 + vn4_vnp4_sn15 + vn4_vnp4_sn7 <= 0
 _Embedding_clash_const_of_vnode1_vnp_5#16: - vnp5 + vn1_vnp5_sn12
                                 + vn1_vnp5_sn9 + vn1_vnp5_sn1 <= 0
 _Embedding_clash_const_of_vnode2_vnp_5#17: - vnp5 + vn2_vnp5_sn11 <= 0
 _Embedding_clash_const_of_vnode3_vnp_5#18: - vnp5 + vn3_vnp5_sn13 <= 0
 _Embedding_clash_const_of_vnode4_vnp_5#19: - vnp5 + vn4_vnp5_sn5
                                 + vn4_vnp5_sn10 + vn4_vnp5_sn6 <= 0
 _Embedding_clash_const_of_vnode1_vnp_6#20: - vnp6 + vn1_vnp6_sn13
                                 + vn1_vnp6_sn5 <= 0
 _Embedding_clash_const_of_vnode2_vnp_6#21: - vnp6 + vn2_vnp6_sn4
                                 + vn2_vnp6_sn1 + vn2_vnp6_sn9 <= 0
 _Embedding_clash_const_of_vnode3_vnp_6#22: - vnp6 + vn3_vnp6_sn14
                                 + vn3_vnp6_sn16 + vn3_vnp6_sn3 <= 0
 _Embedding_clash_const_of_vnode4_vnp_6#23: - vnp6 + vn4_vnp6_sn6 <= 0
 _Embedding_clash_const_of_vnode1_vnp_7#24: - vnp7 + vn1_vnp7_sn12
                                 + vn1_vnp7_sn16 <= 0
 _Embedding_clash_const_of_vnode2_vnp_7#25: - vnp7 + vn2_vnp7_sn4
                                 + vn2_vnp7_sn6 <= 0
 _Embedding_clash_const_of_vnode3_vnp_7#26: - vnp7 + vn3_vnp7_sn1
                                 + vn3_vnp7_sn20 + vn3_vnp7_sn14 <= 0
 _Embedding_clash_const_of_vnode4_vnp_7#27: - vnp7 + vn4_vnp7_sn5 <= 0
 _Embedding_clash_const_of_vnode1_vnp_8#28: - vnp8 + vn1_vnp8_sn16
                                 + vn1_vnp8_sn5 + vn1_vnp8_sn8 <= 0
 _Embedding_clash_const_of_vnode2_vnp_8#29: - vnp8 + vn2_vnp8_sn3
                                 + vn2_vnp8_sn9 + vn2_vnp8_sn10 <= 0
 _Embedding_clash_const_of_vnode3_vnp_8#30: - vnp8 + vn3_vnp8_sn17
                                 + vn3_vnp8_sn20 <= 0
 No_partial_embedding_of_Virtual_Network_1_Virtual_Link_1#0: vnp1
                                 + [ - vn3_vnp1_sn5 * vn1_vnp1_sn20
                                 - vn3_vnp1_sn5 * vn1_vnp1_sn17
                                 - vn1_vnp1_sn20 * vn3_vnp1_sn12
                                 - vn1_vnp1_sn17 * vn3_vnp1_sn12 ] <= 0
 No_partial_embedding_of_Virtual_Network_1_Virtual_Link_2#1: vnp1
                                 + [ - vn3_vnp1_sn5 * vn2_vnp1_sn10
                                 - vn3_vnp1_sn5 * vn2_vnp1_sn1
                                 - vn3_vnp1_sn12 * vn2_vnp1_sn10
                                 - vn3_vnp1_sn12 * vn2_vnp1_sn1 ] <= 0
 No_partial_embedding_of_Virtual_Network_1_Virtual_Link_3#2: vnp1
                                 + [ - vn3_vnp1_sn5 * vn4_vnp1_sn18
                                 - vn3_vnp1_sn12 * vn4_vnp1_sn18 ] <= 0
 No_partial_embedding_of_Virtual_Network_1_Virtual_Link_4#3: vnp1
                                 + [ - vn2_vnp1_sn10 * vn4_vnp1_sn18
                                 - vn2_vnp1_sn1 * vn4_vnp1_sn18 ] <= 0
 No_partial_embedding_of_Virtual_Network_2_Virtual_Link_5#4: vnp2
                                 + [ - vn3_vnp2_sn6 * vn1_vnp2_sn8
                                 - vn3_vnp2_sn6 * vn1_vnp2_sn11
                                 - vn3_vnp2_sn6 * vn1_vnp2_sn3
                                 - vn1_vnp2_sn8 * vn3_vnp2_sn2
                                 - vn1_vnp2_sn11 * vn3_vnp2_sn2
                                 - vn1_vnp2_sn3 * vn3_vnp2_sn2 ] <= 0
 No_partial_embedding_of_Virtual_Network_2_Virtual_Link_6#5: vnp2
                                 + [ - vn3_vnp2_sn6 * vn2_vnp2_sn18
                                 - vn3_vnp2_sn6 * vn2_vnp2_sn10
                                 - vn3_vnp2_sn6 * vn2_vnp2_sn4
                                 - vn3_vnp2_sn2 * vn2_vnp2_sn18
                                 - vn3_vnp2_sn2 * vn2_vnp2_sn10
                                 - vn3_vnp2_sn2 * vn2_vnp2_sn4 ] <= 0
 No_partial_embedding_of_Virtual_Network_2_Virtual_Link_7#6: vnp2
                                 + [ - vn3_vnp2_sn6 * vn4_vnp2_sn13
                                 - vn3_vnp2_sn6 * vn4_vnp2_sn19
                                 - vn3_vnp2_sn6 * vn4_vnp2_sn16
                                 - vn3_vnp2_sn2 * vn4_vnp2_sn13
                                 - vn3_vnp2_sn2 * vn4_vnp2_sn19
                                 - vn3_vnp2_sn2 * vn4_vnp2_sn16 ] <= 0
 No_partial_embedding_of_Virtual_Network_2_Virtual_Link_8#7: vnp2
                                 + [ - vn2_vnp2_sn18 * vn4_vnp2_sn13
                                 - vn2_vnp2_sn18 * vn4_vnp2_sn19
                                 - vn2_vnp2_sn18 * vn4_vnp2_sn16
                                 - vn2_vnp2_sn10 * vn4_vnp2_sn13
                                 - vn2_vnp2_sn10 * vn4_vnp2_sn19
                                 - vn2_vnp2_sn10 * vn4_vnp2_sn16
                                 - vn2_vnp2_sn4 * vn4_vnp2_sn13
                                 - vn2_vnp2_sn4 * vn4_vnp2_sn19
                                 - vn2_vnp2_sn4 * vn4_vnp2_sn16 ] <= 0
 No_partial_embedding_of_Virtual_Network_2_Virtual_Link_9#8: vnp2
                                 + [ - vn1_vnp2_sn8 * vn2_vnp2_sn18
                                 - vn1_vnp2_sn8 * vn2_vnp2_sn10
                                 - vn1_vnp2_sn8 * vn2_vnp2_sn4
                                 - vn1_vnp2_sn11 * vn2_vnp2_sn18
                                 - vn1_vnp2_sn11 * vn2_vnp2_sn10
                                 - vn1_vnp2_sn11 * vn2_vnp2_sn4
                                 - vn1_vnp2_sn3 * vn2_vnp2_sn18
                                 - vn1_vnp2_sn3 * vn2_vnp2_sn10
                                 - vn1_vnp2_sn3 * vn2_vnp2_sn4 ] <= 0
 No_partial_embedding_of_Virtual_Network_3_Virtual_Link_10#9: vnp3
                                 + [ - vn3_vnp3_sn12 * vn1_vnp3_sn19
                                 - vn3_vnp3_sn12 * vn1_vnp3_sn7
                                 - vn3_vnp3_sn12 * vn1_vnp3_sn20 ] <= 0
 No_partial_embedding_of_Virtual_Network_3_Virtual_Link_11#10: vnp3
                                 + [ - vn1_vnp3_sn19 * vn2_vnp3_sn16
                                 - vn1_vnp3_sn7 * vn2_vnp3_sn16
                                 - vn1_vnp3_sn20 * vn2_vnp3_sn16 ] <= 0
 No_partial_embedding_of_Virtual_Network_3_Virtual_Link_12#11: vnp3
                                 + [ - vn3_vnp3_sn12 * vn4_vnp3_sn1 ] <= 0
 No_partial_embedding_of_Virtual_Network_3_Virtual_Link_13#12: vnp3
                                 + [ - vn2_vnp3_sn16 * vn4_vnp3_sn1 ] <= 0
 No_partial_embedding_of_Virtual_Network_4_Virtual_Link_14#13: vnp4
                                 + [ - vn3_vnp4_sn19 * vn1_vnp4_sn13
                                 - vn3_vnp4_sn19 * vn1_vnp4_sn14
                                 - vn3_vnp4_sn19 * vn1_vnp4_sn10 ] <= 0
 No_partial_embedding_of_Virtual_Network_4_Virtual_Link_15#14: vnp4
                                 + [ - vn1_vnp4_sn13 * vn2_vnp4_sn20
                                 - vn1_vnp4_sn13 * vn2_vnp4_sn17
                                 - vn1_vnp4_sn13 * vn2_vnp4_sn1
                                 - vn1_vnp4_sn14 * vn2_vnp4_sn20
                                 - vn1_vnp4_sn14 * vn2_vnp4_sn17
                                 - vn1_vnp4_sn14 * vn2_vnp4_sn1
                                 - vn1_vnp4_sn10 * vn2_vnp4_sn20
                                 - vn1_vnp4_sn10 * vn2_vnp4_sn17
                                 - vn1_vnp4_sn10 * vn2_vnp4_sn1 ] <= 0
 No_partial_embedding_of_Virtual_Network_4_Virtual_Link_16#15: vnp4
                                 + [ - vn3_vnp4_sn19 * vn4_vnp4_sn5
                                 - vn3_vnp4_sn19 * vn4_vnp4_sn15
                                 - vn3_vnp4_sn19 * vn4_vnp4_sn7 ] <= 0
 No_partial_embedding_of_Virtual_Network_4_Virtual_Link_17#16: vnp4
                                 + [ - vn1_vnp4_sn13 * vn4_vnp4_sn5
                                 - vn1_vnp4_sn13 * vn4_vnp4_sn15
                                 - vn1_vnp4_sn13 * vn4_vnp4_sn7
                                 - vn1_vnp4_sn14 * vn4_vnp4_sn5
                                 - vn1_vnp4_sn14 * vn4_vnp4_sn15
                                 - vn1_vnp4_sn14 * vn4_vnp4_sn7
                                 - vn1_vnp4_sn10 * vn4_vnp4_sn5
                                 - vn1_vnp4_sn10 * vn4_vnp4_sn15
                                 - vn1_vnp4_sn10 * vn4_vnp4_sn7 ] <= 0
 No_partial_embedding_of_Virtual_Network_4_Virtual_Link_18#17: vnp4
                                 + [ - vn2_vnp4_sn20 * vn4_vnp4_sn5
                                 - vn2_vnp4_sn20 * vn4_vnp4_sn15
                                 - vn2_vnp4_sn20 * vn4_vnp4_sn7
                                 - vn2_vnp4_sn17 * vn4_vnp4_sn5
                                 - vn2_vnp4_sn17 * vn4_vnp4_sn15
                                 - vn2_vnp4_sn17 * vn4_vnp4_sn7
                                 - vn2_vnp4_sn1 * vn4_vnp4_sn5
                                 - vn2_vnp4_sn1 * vn4_vnp4_sn15
                                 - vn2_vnp4_sn1 * vn4_vnp4_sn7 ] <= 0
 No_partial_embedding_of_Virtual_Network_5_Virtual_Link_19#18: vnp5
                                 + [ - vn3_vnp5_sn13 * vn1_vnp5_sn12
                                 - vn3_vnp5_sn13 * vn1_vnp5_sn9
                                 - vn3_vnp5_sn13 * vn1_vnp5_sn1 ] <= 0
 No_partial_embedding_of_Virtual_Network_5_Virtual_Link_20#19: vnp5
                                 + [ - vn3_vnp5_sn13 * vn2_vnp5_sn11 ] <= 0
 No_partial_embedding_of_Virtual_Network_5_Virtual_Link_21#20: vnp5
                                 + [ - vn3_vnp5_sn13 * vn4_vnp5_sn5
                                 - vn3_vnp5_sn13 * vn4_vnp5_sn10
                                 - vn3_vnp5_sn13 * vn4_vnp5_sn6 ] <= 0
 No_partial_embedding_of_Virtual_Network_5_Virtual_Link_22#21: vnp5
                                 + [ - vn2_vnp5_sn11 * vn4_vnp5_sn5
                                 - vn2_vnp5_sn11 * vn4_vnp5_sn10
                                 - vn2_vnp5_sn11 * vn4_vnp5_sn6 ] <= 0
 No_partial_embedding_of_Virtual_Network_6_Virtual_Link_23#22: vnp6
                                 + [ - vn4_vnp6_sn6 * vn1_vnp6_sn13
                                 - vn4_vnp6_sn6 * vn1_vnp6_sn5 ] <= 0
 No_partial_embedding_of_Virtual_Network_6_Virtual_Link_24#23: vnp6
                                 + [ - vn4_vnp6_sn6 * vn2_vnp6_sn4
                                 - vn4_vnp6_sn6 * vn2_vnp6_sn1
                                 - vn4_vnp6_sn6 * vn2_vnp6_sn9 ] <= 0
 No_partial_embedding_of_Virtual_Network_6_Virtual_Link_25#24: vnp6
                                 + [ - vn1_vnp6_sn13 * vn3_vnp6_sn14
                                 - vn1_vnp6_sn13 * vn3_vnp6_sn16
                                 - vn1_vnp6_sn13 * vn3_vnp6_sn3
                                 - vn1_vnp6_sn5 * vn3_vnp6_sn14
                                 - vn1_vnp6_sn5 * vn3_vnp6_sn16
                                 - vn1_vnp6_sn5 * vn3_vnp6_sn3 ] <= 0
 No_partial_embedding_of_Virtual_Network_6_Virtual_Link_26#25: vnp6
                                 + [ - vn4_vnp6_sn6 * vn3_vnp6_sn14
                                 - vn4_vnp6_sn6 * vn3_vnp6_sn16
                                 - vn4_vnp6_sn6 * vn3_vnp6_sn3 ] <= 0
 No_partial_embedding_of_Virtual_Network_7_Virtual_Link_27#26: vnp7
                                 + [ - vn2_vnp7_sn4 * vn1_vnp7_sn12
                                 - vn2_vnp7_sn4 * vn1_vnp7_sn16
                                 - vn1_vnp7_sn12 * vn2_vnp7_sn6
                                 - vn1_vnp7_sn16 * vn2_vnp7_sn6 ] <= 0
 No_partial_embedding_of_Virtual_Network_7_Virtual_Link_28#27: vnp7
                                 + [ - vn2_vnp7_sn4 * vn3_vnp7_sn1
                                 - vn2_vnp7_sn4 * vn3_vnp7_sn20
                                 - vn2_vnp7_sn4 * vn3_vnp7_sn14
                                 - vn2_vnp7_sn6 * vn3_vnp7_sn1
                                 - vn2_vnp7_sn6 * vn3_vnp7_sn20
                                 - vn2_vnp7_sn6 * vn3_vnp7_sn14 ] <= 0
 No_partial_embedding_of_Virtual_Network_7_Virtual_Link_29#28: vnp7
                                 + [ - vn1_vnp7_sn12 * vn3_vnp7_sn1
                                 - vn1_vnp7_sn12 * vn3_vnp7_sn20
                                 - vn1_vnp7_sn12 * vn3_vnp7_sn14
                                 - vn1_vnp7_sn16 * vn3_vnp7_sn1
                                 - vn1_vnp7_sn16 * vn3_vnp7_sn20
                                 - vn1_vnp7_sn16 * vn3_vnp7_sn14 ] <= 0
 No_partial_embedding_of_Virtual_Network_7_Virtual_Link_30#29: vnp7
                                 + [ - vn3_vnp7_sn1 * vn4_vnp7_sn5
                                 - vn3_vnp7_sn20 * vn4_vnp7_sn5
                                 - vn3_vnp7_sn14 * vn4_vnp7_sn5 ] <= 0
 No_partial_embedding_of_Virtual_Network_7_Virtual_Link_31#30: vnp7
                                 + [ - vn2_vnp7_sn4 * vn4_vnp7_sn5
                                 - vn2_vnp7_sn6 * vn4_vnp7_sn5 ] <= 0
 No_partial_embedding_of_Virtual_Network_8_Virtual_Link_32#31: vnp8
                                 + [ - vn3_vnp8_sn17 * vn1_vnp8_sn16
                                 - vn3_vnp8_sn17 * vn1_vnp8_sn5
                                 - vn3_vnp8_sn17 * vn1_vnp8_sn8
                                 - vn1_vnp8_sn16 * vn3_vnp8_sn20
                                 - vn1_vnp8_sn5 * vn3_vnp8_sn20
                                 - vn1_vnp8_sn8 * vn3_vnp8_sn20 ] <= 0
 No_partial_embedding_of_Virtual_Network_8_Virtual_Link_33#32: vnp8
                                 + [ - vn1_vnp8_sn16 * vn2_vnp8_sn3
                                 - vn1_vnp8_sn16 * vn2_vnp8_sn9
                                 - vn1_vnp8_sn16 * vn2_vnp8_sn10
                                 - vn1_vnp8_sn5 * vn2_vnp8_sn3
                                 - vn1_vnp8_sn5 * vn2_vnp8_sn9
                                 - vn1_vnp8_sn5 * vn2_vnp8_sn10
                                 - vn1_vnp8_sn8 * vn2_vnp8_sn3
                                 - vn1_vnp8_sn8 * vn2_vnp8_sn9
                                 - vn1_vnp8_sn8 * vn2_vnp8_sn10 ] <= 0
 No_partial_embedding_of_Virtual_Network_8_Virtual_Link_34#33: vnp8
                                 + [ - vn3_vnp8_sn17 * vn2_vnp8_sn3
                                 - vn3_vnp8_sn17 * vn2_vnp8_sn9
                                 - vn3_vnp8_sn17 * vn2_vnp8_sn10
                                 - vn3_vnp8_sn20 * vn2_vnp8_sn3
                                 - vn3_vnp8_sn20 * vn2_vnp8_sn9
                                 - vn3_vnp8_sn20 * vn2_vnp8_sn10 ] <= 0
 q35#34:                         - 710 vnp1 - 959 vnp2 - 944 vnp3 - 934 vnp4
                                 - 682 vnp5 - 900 vnp6 - 871 vnp7 - 664 vnp8
                                 + [ 93 vn3_vnp1_sn5 * vn1_vnp1_sn20
                                 + 68 vn3_vnp1_sn5 * vn1_vnp1_sn17
                                 + 87 vn3_vnp1_sn5 * vn2_vnp1_sn10
                                 + 121 vn3_vnp1_sn5 * vn2_vnp1_sn1
                                 + 38 vn3_vnp1_sn5 * vn4_vnp1_sn18
                                 + 64 vn1_vnp1_sn20 * vn3_vnp1_sn12
                                 + 83 vn1_vnp1_sn17 * vn3_vnp1_sn12
                                 + 31 vn3_vnp1_sn12 * vn2_vnp1_sn10
                                 + 275 vn3_vnp1_sn12 * vn2_vnp1_sn1
                                 + 59 vn3_vnp1_sn12 * vn4_vnp1_sn18
                                 + 90 vn2_vnp1_sn10 * vn4_vnp1_sn18
                                 + 72 vn2_vnp1_sn1 * vn4_vnp1_sn18
                                 + 40 vn3_vnp2_sn6 * vn1_vnp2_sn8
                                 + 32 vn3_vnp2_sn6 * vn1_vnp2_sn11
                                 + 33 vn3_vnp2_sn6 * vn1_vnp2_sn3
                                 + 85 vn3_vnp2_sn6 * vn2_vnp2_sn18
                                 + 63 vn3_vnp2_sn6 * vn2_vnp2_sn10
                                 + 95 vn3_vnp2_sn6 * vn2_vnp2_sn4
                                 + 45 vn3_vnp2_sn6 * vn4_vnp2_sn13
                                 + 260 vn3_vnp2_sn6 * vn4_vnp2_sn19
                                 + 195 vn3_vnp2_sn6 * vn4_vnp2_sn16
                                 + 46 vn1_vnp2_sn8 * vn3_vnp2_sn2
                                 + 35 vn1_vnp2_sn8 * vn2_vnp2_sn18
                                 + 175 vn1_vnp2_sn8 * vn2_vnp2_sn10
                                 + 55 vn1_vnp2_sn8 * vn2_vnp2_sn4
                                 + 55 vn1_vnp2_sn11 * vn3_vnp2_sn2
                                 + 200 vn1_vnp2_sn11 * vn2_vnp2_sn18
                                 + 40 vn1_vnp2_sn11 * vn2_vnp2_sn10
                                 + 245 vn1_vnp2_sn11 * vn2_vnp2_sn4
                                 + 20 vn1_vnp2_sn3 * vn3_vnp2_sn2
                                 + 205 vn1_vnp2_sn3 * vn2_vnp2_sn18
                                 + 165 vn1_vnp2_sn3 * vn2_vnp2_sn10
                                 + 95 vn1_vnp2_sn3 * vn2_vnp2_sn4
                                 + 105 vn3_vnp2_sn2 * vn2_vnp2_sn18
                                 + 97 vn3_vnp2_sn2 * vn2_vnp2_sn10
                                 + 69 vn3_vnp2_sn2 * vn2_vnp2_sn4
                                 + 250 vn3_vnp2_sn2 * vn4_vnp2_sn13
                                 + 175 vn3_vnp2_sn2 * vn4_vnp2_sn19
                                 + 225 vn3_vnp2_sn2 * vn4_vnp2_sn16
                                 + 169 vn2_vnp2_sn18 * vn4_vnp2_sn13
                                 + 61 vn2_vnp2_sn18 * vn4_vnp2_sn19
                                 + 77 vn2_vnp2_sn18 * vn4_vnp2_sn16
                                 + 25 vn2_vnp2_sn10 * vn4_vnp2_sn13
                                 + 177 vn2_vnp2_sn10 * vn4_vnp2_sn19
                                 + 81 vn2_vnp2_sn10 * vn4_vnp2_sn16
                                 + 217 vn2_vnp2_sn4 * vn4_vnp2_sn13
                                 + 81 vn2_vnp2_sn4 * vn4_vnp2_sn19
                                 + 93 vn2_vnp2_sn4 * vn4_vnp2_sn16
                                 + 105 vn3_vnp3_sn12 * vn1_vnp3_sn19
                                 + 156 vn3_vnp3_sn12 * vn1_vnp3_sn7
                                 + 69 vn3_vnp3_sn12 * vn1_vnp3_sn20
                                 + 107 vn3_vnp3_sn12 * vn4_vnp3_sn1
                                 + 63 vn1_vnp3_sn19 * vn2_vnp3_sn16
                                 + 60 vn1_vnp3_sn7 * vn2_vnp3_sn16
                                 + 48 vn1_vnp3_sn20 * vn2_vnp3_sn16
                                 + 47 vn2_vnp3_sn16 * vn4_vnp3_sn1
                                 + 47 vn3_vnp4_sn19 * vn1_vnp4_sn13
                                 + 52 vn3_vnp4_sn19 * vn1_vnp4_sn14
                                 + 51 vn3_vnp4_sn19 * vn1_vnp4_sn10
                                 + 86 vn3_vnp4_sn19 * vn4_vnp4_sn5
                                 + 60 vn3_vnp4_sn19 * vn4_vnp4_sn15
                                 + 12 vn3_vnp4_sn19 * vn4_vnp4_sn7
                                 + 108 vn1_vnp4_sn13 * vn2_vnp4_sn20
                                 + 137 vn1_vnp4_sn13 * vn2_vnp4_sn17
                                 + 181 vn1_vnp4_sn13 * vn2_vnp4_sn1
                                 + 107 vn1_vnp4_sn13 * vn4_vnp4_sn5
                                 + 52 vn1_vnp4_sn13 * vn4_vnp4_sn15
                                 + 227 vn1_vnp4_sn13 * vn4_vnp4_sn7
                                 + 128 vn1_vnp4_sn14 * vn2_vnp4_sn20
                                 + 157 vn1_vnp4_sn14 * vn2_vnp4_sn17
                                 + 145 vn1_vnp4_sn14 * vn2_vnp4_sn1
                                 + 117 vn1_vnp4_sn14 * vn4_vnp4_sn5
                                 + 77 vn1_vnp4_sn14 * vn4_vnp4_sn15
                                 + 237 vn1_vnp4_sn14 * vn4_vnp4_sn7
                                 + 109 vn1_vnp4_sn10 * vn2_vnp4_sn20
                                 + 222 vn1_vnp4_sn10 * vn2_vnp4_sn17
                                 + 158 vn1_vnp4_sn10 * vn2_vnp4_sn1
                                 + 78 vn1_vnp4_sn10 * vn4_vnp4_sn5
                                 + 53 vn1_vnp4_sn10 * vn4_vnp4_sn15
                                 + 198 vn1_vnp4_sn10 * vn4_vnp4_sn7
                                 + 168 vn2_vnp4_sn20 * vn4_vnp4_sn5
                                 + 51 vn2_vnp4_sn20 * vn4_vnp4_sn15
                                 + 57 vn2_vnp4_sn20 * vn4_vnp4_sn7
                                 + 90 vn2_vnp4_sn17 * vn4_vnp4_sn5
                                 + 75 vn2_vnp4_sn17 * vn4_vnp4_sn15
                                 + 45 vn2_vnp4_sn17 * vn4_vnp4_sn7
                                 + 72 vn2_vnp4_sn1 * vn4_vnp4_sn5
                                 + 135 vn2_vnp4_sn1 * vn4_vnp4_sn15
                                 + 6 vn2_vnp4_sn1 * vn4_vnp4_sn7
                                 + 16 vn3_vnp5_sn13 * vn1_vnp5_sn12
                                 + 148 vn3_vnp5_sn13 * vn1_vnp5_sn9
                                 + 223 vn3_vnp5_sn13 * vn1_vnp5_sn1
                                 + 19 vn3_vnp5_sn13 * vn2_vnp5_sn11
                                 + 68 vn3_vnp5_sn13 * vn4_vnp5_sn5
                                 + 23 vn3_vnp5_sn13 * vn4_vnp5_sn10
                                 + 35 vn3_vnp5_sn13 * vn4_vnp5_sn6
                                 + 23 vn2_vnp5_sn11 * vn4_vnp5_sn5
                                 + 14 vn2_vnp5_sn11 * vn4_vnp5_sn10
                                 + 32 vn2_vnp5_sn11 * vn4_vnp5_sn6
                                 + 13 vn4_vnp6_sn6 * vn1_vnp6_sn13
                                 + 15 vn4_vnp6_sn6 * vn1_vnp6_sn5
                                 + 177 vn4_vnp6_sn6 * vn2_vnp6_sn4
                                 + 143 vn4_vnp6_sn6 * vn2_vnp6_sn1
                                 + 83 vn4_vnp6_sn6 * vn2_vnp6_sn9
                                 + 120 vn4_vnp6_sn6 * vn3_vnp6_sn14
                                 + 173 vn4_vnp6_sn6 * vn3_vnp6_sn16
                                 + 116 vn4_vnp6_sn6 * vn3_vnp6_sn3
                                 + 18 vn1_vnp6_sn13 * vn3_vnp6_sn14
                                 + 61 vn1_vnp6_sn13 * vn3_vnp6_sn16
                                 + 80 vn1_vnp6_sn13 * vn3_vnp6_sn3
                                 + 53 vn1_vnp6_sn5 * vn3_vnp6_sn14
                                 + 70 vn1_vnp6_sn5 * vn3_vnp6_sn16
                                 + 37 vn1_vnp6_sn5 * vn3_vnp6_sn3
                                 + 89 vn2_vnp7_sn4 * vn1_vnp7_sn12
                                 + 66 vn2_vnp7_sn4 * vn1_vnp7_sn16
                                 + 17 vn2_vnp7_sn4 * vn3_vnp7_sn1
                                 + 175 vn2_vnp7_sn4 * vn3_vnp7_sn20
                                 + 160 vn2_vnp7_sn4 * vn3_vnp7_sn14
                                 + 32 vn2_vnp7_sn4 * vn4_vnp7_sn5
                                 + 40 vn1_vnp7_sn12 * vn2_vnp7_sn6
                                 + 171 vn1_vnp7_sn12 * vn3_vnp7_sn1
                                 + 87 vn1_vnp7_sn12 * vn3_vnp7_sn20
                                 + 27 vn1_vnp7_sn12 * vn3_vnp7_sn14
                                 + 99 vn1_vnp7_sn16 * vn2_vnp7_sn6
                                 + 84 vn1_vnp7_sn16 * vn3_vnp7_sn1
                                 + 69 vn1_vnp7_sn16 * vn3_vnp7_sn20
                                 + 72 vn1_vnp7_sn16 * vn3_vnp7_sn14
                                 + 184 vn2_vnp7_sn6 * vn3_vnp7_sn1
                                 + 182 vn2_vnp7_sn6 * vn3_vnp7_sn20
                                 + 152 vn2_vnp7_sn6 * vn3_vnp7_sn14
                                 + 19 vn2_vnp7_sn6 * vn4_vnp7_sn5
                                 + 27 vn3_vnp7_sn1 * vn4_vnp7_sn5
                                 + 61 vn3_vnp7_sn20 * vn4_vnp7_sn5
                                 + 23 vn3_vnp7_sn14 * vn4_vnp7_sn5
                                 + 57 vn3_vnp8_sn17 * vn1_vnp8_sn16
                                 + 78 vn3_vnp8_sn17 * vn1_vnp8_sn5
                                 + 15 vn3_vnp8_sn17 * vn1_vnp8_sn8
                                 + 29 vn3_vnp8_sn17 * vn2_vnp8_sn3
                                 + 17 vn3_vnp8_sn17 * vn2_vnp8_sn9
                                 + 51 vn3_vnp8_sn17 * vn2_vnp8_sn10
                                 + 63 vn1_vnp8_sn16 * vn3_vnp8_sn20
                                 + 170 vn1_vnp8_sn16 * vn2_vnp8_sn3
                                 + 110 vn1_vnp8_sn16 * vn2_vnp8_sn9
                                 + 105 vn1_vnp8_sn16 * vn2_vnp8_sn10
                                 + 165 vn1_vnp8_sn5 * vn3_vnp8_sn20
                                 + 78 vn1_vnp8_sn5 * vn2_vnp8_sn3
                                 + 43 vn1_vnp8_sn5 * vn2_vnp8_sn9
                                 + 78 vn1_vnp8_sn5 * vn2_vnp8_sn10
                                 + 21 vn1_vnp8_sn8 * vn3_vnp8_sn20
                                 + 136 vn1_vnp8_sn8 * vn2_vnp8_sn3
                                 + 76 vn1_vnp8_sn8 * vn2_vnp8_sn9
                                 + 166 vn1_vnp8_sn8 * vn2_vnp8_sn10
                                 + 39 vn3_vnp8_sn20 * vn2_vnp8_sn3
                                 + 46 vn3_vnp8_sn20 * vn2_vnp8_sn9
                                 + 25 vn3_vnp8_sn20 * vn2_vnp8_sn10 ] <= 0
Lazy Constraints
 CPU_capacity_of_substrate_node_1#0: 3 vn2_vnp1_sn1 + 3 vn4_vnp3_sn1
                                 + 3 vn2_vnp4_sn1 + vn1_vnp5_sn1 + vn2_vnp6_sn1
                                 + 3 vn3_vnp7_sn1 <= 3
 CPU_capacity_of_substrate_node_3#1: 3 vn1_vnp2_sn3 + 3 vn3_vnp6_sn3 <= 2
 CPU_capacity_of_substrate_node_4#2: 3 vn2_vnp2_sn4 + vn2_vnp6_sn4
                                 + 3 vn2_vnp7_sn4 <= 3
 CPU_capacity_of_substrate_node_5#3: 3 vn3_vnp1_sn5 + 3 vn4_vnp5_sn5
                                 + vn1_vnp6_sn5 + vn4_vnp7_sn5 + 3 vn1_vnp8_sn5
                                 <= 5
 CPU_capacity_of_substrate_node_6#4: 3 vn4_vnp5_sn6 + vn4_vnp6_sn6
                                 + 3 vn2_vnp7_sn6 <= 8
 CPU_capacity_of_substrate_node_8#5: 3 vn1_vnp2_sn8 + 3 vn1_vnp8_sn8 <= 5
 CPU_capacity_of_substrate_node_9#6: vn1_vnp5_sn9 + vn2_vnp6_sn9 <= 5
 CPU_capacity_of_substrate_node_10#7: 3 vn2_vnp1_sn10 + 3 vn2_vnp2_sn10
                                 + vn1_vnp4_sn10 + 3 vn4_vnp5_sn10 <= 5
 CPU_capacity_of_substrate_node_11#8: 3 vn1_vnp2_sn11 <= 7
 CPU_capacity_of_substrate_node_12#9: 3 vn3_vnp1_sn12 + vn1_vnp5_sn12
                                 + 3 vn1_vnp7_sn12 <= 7
 CPU_capacity_of_substrate_node_13#10: vn1_vnp4_sn13 + vn3_vnp5_sn13
                                 + vn1_vnp6_sn13 <= 8
 CPU_capacity_of_substrate_node_14#11: vn1_vnp4_sn14 + 3 vn3_vnp6_sn14
                                 + 3 vn3_vnp7_sn14 <= 5
 CPU_capacity_of_substrate_node_16#12: 3 vn3_vnp6_sn16 + 3 vn1_vnp7_sn16
                                 + 3 vn1_vnp8_sn16 <= 1
 CPU_capacity_of_substrate_node_17#13: 3 vn1_vnp1_sn17 + 3 vn2_vnp4_sn17 <= 4
 CPU_capacity_of_substrate_node_18#14: 3 vn4_vnp1_sn18 + 3 vn2_vnp2_sn18 <= 5
 CPU_capacity_of_substrate_node_19#15: 3 vn3_vnp4_sn19 <= 1
 CPU_capacity_of_substrate_node_20#16: 3 vn1_vnp1_sn20 + 3 vn2_vnp4_sn20
                                 + 3 vn3_vnp7_sn20 <= 3
Bounds
 0 <= vnp1 <= 1
 0 <= vn3_vnp1_sn5 <= 1
 0 <= vn1_vnp1_sn20 <= 1
 0 <= vn1_vnp1_sn17 <= 1
 0 <= vn3_vnp1_sn12 <= 1
 0 <= vn2_vnp1_sn10 <= 1
 0 <= vn2_vnp1_sn1 <= 1
 0 <= vn4_vnp1_sn18 <= 1
 0 <= vnp2 <= 1
 0 <= vn3_vnp2_sn6 <= 1
 0 <= vn1_vnp2_sn8 <= 1
 0 <= vn1_vnp2_sn11 <= 1
 0 <= vn1_vnp2_sn3 <= 1
 0 <= vn3_vnp2_sn2 <= 1
 0 <= vn2_vnp2_sn18 <= 1
 0 <= vn2_vnp2_sn10 <= 1
 0 <= vn2_vnp2_sn4 <= 1
 0 <= vn4_vnp2_sn13 <= 1
 0 <= vn4_vnp2_sn19 <= 1
 0 <= vn4_vnp2_sn16 <= 1
 0 <= vnp3 <= 1
 0 <= vn3_vnp3_sn12 <= 1
 0 <= vn1_vnp3_sn19 <= 1
 0 <= vn1_vnp3_sn7 <= 1
 0 <= vn1_vnp3_sn20 <= 1
 0 <= vn2_vnp3_sn16 <= 1
 0 <= vn4_vnp3_sn1 <= 1
 0 <= vnp4 <= 1
 0 <= vn3_vnp4_sn19 <= 1
 0 <= vn1_vnp4_sn13 <= 1
 0 <= vn1_vnp4_sn14 <= 1
 0 <= vn1_vnp4_sn10 <= 1
 0 <= vn2_vnp4_sn20 <= 1
 0 <= vn2_vnp4_sn17 <= 1
 0 <= vn2_vnp4_sn1 <= 1
 0 <= vn4_vnp4_sn5 <= 1
 0 <= vn4_vnp4_sn15 <= 1
 0 <= vn4_vnp4_sn7 <= 1
 0 <= vnp5 <= 1
 0 <= vn3_vnp5_sn13 <= 1
 0 <= vn1_vnp5_sn12 <= 1
 0 <= vn1_vnp5_sn9 <= 1
 0 <= vn1_vnp5_sn1 <= 1
 0 <= vn2_vnp5_sn11 <= 1
 0 <= vn4_vnp5_sn5 <= 1
 0 <= vn4_vnp5_sn10 <= 1
 0 <= vn4_vnp5_sn6 <= 1
 0 <= vnp6 <= 1
 0 <= vn4_vnp6_sn6 <= 1
 0 <= vn1_vnp6_sn13 <= 1
 0 <= vn1_vnp6_sn5 <= 1
 0 <= vn2_vnp6_sn4 <= 1
 0 <= vn2_vnp6_sn1 <= 1
 0 <= vn2_vnp6_sn9 <= 1
 0 <= vn3_vnp6_sn14 <= 1
 0 <= vn3_vnp6_sn16 <= 1
 0 <= vn3_vnp6_sn3 <= 1
 0 <= vnp7 <= 1
 0 <= vn2_vnp7_sn4 <= 1
 0 <= vn1_vnp7_sn12 <= 1
 0 <= vn1_vnp7_sn16 <= 1
 0 <= vn2_vnp7_sn6 <= 1
 0 <= vn3_vnp7_sn1 <= 1
 0 <= vn3_vnp7_sn20 <= 1
 0 <= vn3_vnp7_sn14 <= 1
 0 <= vn4_vnp7_sn5 <= 1
 0 <= vnp8 <= 1
 0 <= vn3_vnp8_sn17 <= 1
 0 <= vn1_vnp8_sn16 <= 1
 0 <= vn1_vnp8_sn5 <= 1
 0 <= vn1_vnp8_sn8 <= 1
 0 <= vn3_vnp8_sn20 <= 1
 0 <= vn2_vnp8_sn3 <= 1
 0 <= vn2_vnp8_sn9 <= 1
 0 <= vn2_vnp8_sn10 <= 1
Binaries
 vnp1  vn3_vnp1_sn5  vn1_vnp1_sn20  vn1_vnp1_sn17  vn3_vnp1_sn12 
 vn2_vnp1_sn10  vn2_vnp1_sn1  vn4_vnp1_sn18  vnp2  vn3_vnp2_sn6  vn1_vnp2_sn8 
 vn1_vnp2_sn11  vn1_vnp2_sn3  vn3_vnp2_sn2  vn2_vnp2_sn18  vn2_vnp2_sn10 
 vn2_vnp2_sn4  vn4_vnp2_sn13  vn4_vnp2_sn19  vn4_vnp2_sn16  vnp3 
 vn3_vnp3_sn12  vn1_vnp3_sn19  vn1_vnp3_sn7  vn1_vnp3_sn20  vn2_vnp3_sn16 
 vn4_vnp3_sn1  vnp4  vn3_vnp4_sn19  vn1_vnp4_sn13  vn1_vnp4_sn14 
 vn1_vnp4_sn10  vn2_vnp4_sn20  vn2_vnp4_sn17  vn2_vnp4_sn1  vn4_vnp4_sn5 
 vn4_vnp4_sn15  vn4_vnp4_sn7  vnp5  vn3_vnp5_sn13  vn1_vnp5_sn12  vn1_vnp5_sn9 
 vn1_vnp5_sn1  vn2_vnp5_sn11  vn4_vnp5_sn5  vn4_vnp5_sn10  vn4_vnp5_sn6  vnp6 
 vn4_vnp6_sn6  vn1_vnp6_sn13  vn1_vnp6_sn5  vn2_vnp6_sn4  vn2_vnp6_sn1 
 vn2_vnp6_sn9  vn3_vnp6_sn14  vn3_vnp6_sn16  vn3_vnp6_sn3  vnp7  vn2_vnp7_sn4 
 vn1_vnp7_sn12  vn1_vnp7_sn16  vn2_vnp7_sn6  vn3_vnp7_sn1  vn3_vnp7_sn20 
 vn3_vnp7_sn14  vn4_vnp7_sn5  vnp8  vn3_vnp8_sn17  vn1_vnp8_sn16  vn1_vnp8_sn5 
 vn1_vnp8_sn8  vn3_vnp8_sn20  vn2_vnp8_sn3  vn2_vnp8_sn9  vn2_vnp8_sn10 
End
